SCIP Status        : solving was interrupted [time limit reached]
Total Time         :    3600.00
  solving          :    3600.00
  presolving       :       0.38 (included in solving)
  reading          :       0.00
  copying          :       0.78 (41 #copies) (minimal 0.00, maximal 0.07, average 0.02)
Original Problem   :
  Problem name     : bbbenchmark/pw09_100.6.cut
  Variables        : 101 (100 binary, 0 integer, 0 implicit integer, 1 continuous)
  Constraints      : 1 initial, 1 maximal
  Objective        : minimize, 1 non-zeros (abs.min = 1, abs.max = 1)
Presolved Problem  :
  Problem name     : t_bbbenchmark/pw09_100.6.cut
  Variables        : 1330 (100 binary, 0 integer, 1181 implicit integer, 49 continuous)
  Constraints      : 1326 initial, 7365 maximal
  Objective        : minimize, 1 non-zeros (abs.min = 1, abs.max = 1)
  Nonzeros         : 11661 constraint, 202 clique table
Presolvers         :   ExecTime  SetupTime  Calls  FixedVars   AggrVars   ChgTypes  ChgBounds   AddHoles    DelCons    AddCons   ChgSides   ChgCoefs
  boundshift       :       0.00       0.00      0          0          0          0          0          0          0          0          0          0
  convertinttobin  :       0.00       0.00      0          0          0          0          0          0          0          0          0          0
  domcol           :       0.00       0.00      1          0          0          0          0          0          0          0          0          0
  dualagg          :       0.00       0.00      0          0          0          0          0          0          0          0          0          0
  dualcomp         :       0.00       0.00      1          0          0          0          0          0          0          0          0          0
  dualinfer        :       0.00       0.00      0          0          0          0          0          0          0          0          0          0
  dualsparsify     :       0.00       0.00      1          0          0          0          0          0          0          0          0          0
  gateextraction   :       0.00       0.00      0          0          0          0          0          0          0          0          0          0
  implics          :       0.00       0.00      2          0          0          0          0          0          0          0          0          0
  inttobinary      :       0.00       0.00      0          0          0          0          0          0          0          0          0          0
  qpkktref         :       0.00       0.00      0          0          0          0          0          0          0          0          0          0
  redvub           :       0.00       0.00      0          0          0          0          0          0          0          0          0          0
  sparsify         :       0.00       0.00      1          0          0          0          0          0          0          0          0          0
  stuffing         :       0.00       0.00      0          0          0          0          0          0          0          0          0          0
  trivial          :       0.00       0.00      4          0          0          0          0          0          0          0          0          0
  tworowbnd        :       0.00       0.00      0          0          0          0          0          0          0          0          0          0
  dualfix          :       0.00       0.00      4          0          0          0          0          0          0          0          0          0
  genvbounds       :       0.00       0.00      0          0          0          0          0          0          0          0          0          0
  probing          :       0.21       0.00      1          0          0          0          0          0          0          0          0          0
  pseudoobj        :       0.00       0.00      1          0          0          0          1          0          0          0          0          0
  symmetry         :       0.00       0.00      0          0          0          0          0          0          0          0          0          0
  vbounds          :       0.00       0.00      1          0          0          0          0          0          0          0          0          0
  varbound         :       0.00       0.00      2          0          0          0          0          0          0          0          0          0
  and              :       0.00       0.00      2          0          0          0          0          0          0          0          0          0
  linear           :       0.01       0.00      2          0          0          0          0          0          0          0          0          0
  logicor          :       0.00       0.00      0          0          0          0          0          0          0          0          0          0
  bounddisjunction :       0.00       0.00      0          0          0          0          0          0          0          0          0          0
  nonlinear        :       0.15       0.01      5          0          0          0          1          0          0       1325          0          0
  benders          :       0.00       0.00      0          0          0          0          0          0          0          0          0          0
  components       :       0.00       0.00      1          0          0          0          0          0          0          0          0          0
  root node        :          -          -      -          0          -          -          7          -          -          -          -          -
Constraints        :     Number  MaxNumber  #Separate #Propagate    #EnfoLP    #EnfoRelax  #EnfoPS    #Check   #ResProp    Cutoffs    DomReds       Cuts    Applied      Conss   Children
  benderslp        :          0          0          0          0     104022          0          0      13531          0          0          0          0          0          0          0
  integral         :          0          0          0          0     104022          0          0      13531          0          0         47          0          0         25     207960
  varbound         :         48         48         34     685305          0          0          0       5056        166          0      66766          0          0          0          0
  and              :       1181       1181     130631     694441          0          0          0       1194     130297          0     503787      13660      11830          0          0
  linear           :         97+       151         34     694682          0          0          0       1192      15533         72    1523705          0          0          0          0
  logicor          :          0+      2334          0      50402          0          0          0          0          4        240          0          0          0          0          0
  bounddisjunction :          0+      3676          0      68059          0          0          0          0          2         47          0          0          0          0          0
  benders          :          0          0          0          0          0          0          0        141          0          0          0          0          0          0          0
  countsols        :          0          0          0          0          0          0          0        141          0          0          0          0          0          0          0
  components       :          0          0          0          0          0          0          0          0          0          0          0          0          0          0          0
Constraint Timings :  TotalTime  SetupTime   Separate  Propagate     EnfoLP     EnfoPS     EnfoRelax   Check    ResProp    SB-Prop
  benderslp        :       0.06       0.00       0.00       0.00       0.06       0.00       0.00       0.00       0.00       0.00
  integral         :      34.80       0.00       0.00       0.00      34.49       0.00       0.00       0.31       0.00       0.00
  varbound         :       1.45       0.00       0.00       1.38       0.00       0.00       0.00       0.06       0.00       0.01
  and              :      63.44       0.00      45.08      17.70       0.00       0.00       0.00       0.34       0.14       0.18
  linear           :      13.98       0.00       0.05      13.79       0.00       0.00       0.00       0.01       0.05       0.08
  logicor          :       1.25       0.00       0.00       1.25       0.00       0.00       0.00       0.00       0.00       0.00
  bounddisjunction :       1.93       0.00       0.00       1.91       0.00       0.00       0.00       0.00       0.00       0.02
  benders          :       0.00       0.00       0.00       0.00       0.00       0.00       0.00       0.00       0.00       0.00
  countsols        :       0.00       0.00       0.00       0.00       0.00       0.00       0.00       0.00       0.00       0.00
  components       :       0.16       0.00       0.00       0.16       0.00       0.00       0.00       0.00       0.00       0.00
Propagators        : #Propagate   #ResProp    Cutoffs    DomReds
  dualfix          :          2          0          0          0
  genvbounds       :          0          0          0          0
  nlobbt           :          0          0          0          0
  obbt             :          0          0          0          0
  probing          :          0          0          0          0
  pseudoobj        :     471572          2          0       1951
  redcost          :     250357          0          0      94098
  rootredcost      :         15          0          0          0
  symmetry         :          0          0          0          0
  vbounds          :     130344          0          0          0
Propagator Timings :  TotalTime  SetupTime   Presolve  Propagate    ResProp    SB-Prop
  dualfix          :       0.00       0.00       0.00       0.00       0.00       0.00
  genvbounds       :       0.47       0.00       0.00       0.47       0.00       0.00
  nlobbt           :       0.00       0.00       0.00       0.00       0.00       0.00
  obbt             :       0.00       0.00       0.00       0.00       0.00       0.00
  probing          :       0.21       0.00       0.21       0.00       0.00       0.00
  pseudoobj        :       0.65       0.00       0.00       0.65       0.00       0.00
  redcost          :      12.47       0.00       0.00      12.47       0.00       0.00
  rootredcost      :       0.45       0.00       0.00       0.45       0.00       0.00
  symmetry         :       0.25       0.00       0.00       0.25       0.00       0.00
  vbounds          :       0.57       0.00       0.00       0.56       0.00       0.01
Conflict Analysis  :       Time      Calls    Success    DomReds  Conflicts   Literals    Reconvs ReconvLits   Dualrays   Nonzeros   LP Iters   (pool size: [10000,10000])
  propagation      :       0.00        287        176          -        232       74.7          0        0.0          -          -          -
  infeasible LP    :       0.09         81         81          -       1579      139.2          0        0.0        141      137.3          0
  bound exceed. LP :      14.95       3738       3569          -      49958      107.9          0        0.0          0        0.0      56154
  strong branching :       0.00          0          0          -          0        0.0          0        0.0          -          -          0
  pseudo solution  :       0.00          0          0          -          0        0.0          0        0.0          -          -          -
  applied globally :       0.32          -          -          0      14013       95.3          -          -        141          -          -
  applied locally  :          -          -          -          0          0        0.0          -          -          0          -          -
Separators         :   ExecTime  SetupTime      Calls  RootCalls    Cutoffs    DomReds  FoundCuts ViaPoolAdd  DirectAdd    Applied ViaPoolApp  DirectApp      Conss
  cut pool         :       2.83          -      27013         56          -          -      34987     376327          -          -          -          -          -    (maximal pool size:       1919)
  aggregation      :      69.55       0.00       6465         34          0          0       3492       8212          0       3394       3394          0          0
  > cmir           :          -          -          -          -          -          -          -       8160          0       3371       3371          0          -
  > flowcover      :          -          -          -          -          -          -          -         52          0         23         23          0          -
  > knapsackcover  :          -          -          -          -          -          -          -          0          0          0          0          0          -
  cgmip            :       0.00       0.00          0          0          0          0          0          0          0          0          0          0          0
  clique           :       0.00       0.00         34         34          0          0          0          0          0          0          0          0          0
  closecuts        :       0.00       0.00          0          0          0          0          0          0          0          0          0          0          0
  convexproj       :       0.00       0.00          0          0          0          0          0          0          0          0          0          0          0
  disjunctive      :       0.00       0.00          0          0          0          0          0          0          0          0          0          0          0
  eccuts           :       0.00       0.00          0          0          0          0          0          0          0          0          0          0          0
  gauge            :       0.00       0.00          0          0          0          0          0          0          0          0          0          0          0
  gomory           :       0.00       0.00          0          0          0          0          0          0          0          0          0          0          0
  > gomorymi       :          -          -          -          -          -          -          -          0          0          0          0          0          -
  > strongcg       :          -          -          -          -          -          -          -          0          0          0          0          0          -
  impliedbounds    :       0.61       0.00       6465         34          0          0         58          3          0          3          3          0          0
  interlattice     :       0.05       0.00          7          7          0          0          7          0          7          7          0          7          0
  interminor       :       0.00       0.00          0          0          0          0          0          0          0          0          0          0          0
  intersub         :       0.00       0.00          0          0          0          0          0          0          0          0          0          0          0
  intobj           :       0.00       0.00          0          0          0          0          0          0          0          0          0          0          0
  mcf              :       0.00       0.00          1          1          0          0          0          0          0          0          0          0          0
  minor            :       0.01       0.00          0          0          0          0          0          0          0          0          0          0          0
  mixing           :       0.05       0.00       6465         34          0          0          0          0          0          0          0          0          0
  oddcycle         :       0.00       0.00          0          0          0          0          0          0          0          0          0          0          0
  rapidlearning    :       0.00       0.00          0          0          0          0          0          0          0          0          0          0          0
  rlt              :       0.00       0.00         10         10          0          0          0          0          0          0          0          0          0
  zerohalf         :      46.30       0.00       6110         20          0          0      31437     368112          0      88260      88260          0          0
Cutselectors       :   ExecTime  SetupTime      Calls  RootCalls   Selected     Forced   Filtered  RootSelec   RootForc   RootFilt 
  hybrid           :       0.35       0.00      17623         34     103494          0     286500        137          0         30
Pricers            :   ExecTime  SetupTime      Calls       Vars
  problem variables:       0.00          -          0          0
Branching Rules    :   ExecTime  SetupTime   BranchLP  BranchExt   BranchPS    Cutoffs    DomReds       Cuts      Conss   Children
  allfullstrong    :       0.00       0.00          0          0          0          0          0          0          0          0
  cloud            :       0.00       0.00          0          0          0          0          0          0          0          0
  distribution     :       0.00       0.00          0          0          0          0          0          0          0          0
  fullstrong       :       0.00       0.00          0          0          0          0          0          0          0          0
  inference        :       0.00       0.00          0          0          0          0          0          0          0          0
  leastinf         :       0.00       0.00          0          0          0          0          0          0          0          0
  lookahead        :       0.00       0.00          0          0          0          0          0          0          0          0
  mostinf          :       0.00       0.00          0          0          0          0          0          0          0          0
  multaggr         :       0.00       0.00          0          0          0          0          0          0          0          0
  nodereopt        :       0.00       0.00          0          0          0          0          0          0          0          0
  pscost           :       0.00       0.00          0          0          0          0          0          0          0          0
  random           :       0.00       0.00          0          0          0          0          0          0          0          0
  relpscost        :      34.13       0.00     104022          0          0          0         47          0         25     207960
  vanillafullstrong:       0.00       0.00          0          0          0          0          0          0          0          0
Primal Heuristics  :   ExecTime  SetupTime      Calls      Found       Best
  LP solutions     :       0.00          -          -          0          0
  relax solutions  :       0.00          -          -          0          0
  pseudo solutions :       0.00          -          -          0          0
  strong branching :       0.02          -          -          0          0
  actconsdiving    :       0.00       0.00          0          0          0
  adaptivediving   :       4.09       0.00         61          0          0
  alns             :       0.94       0.00         13          0          0
  bound            :       0.00       0.00          0          0          0
  clique           :       0.01       0.00          1          0          0
  coefdiving       :       0.00       0.00          0          0          0
  completesol      :       0.00       0.00          0          0          0
  conflictdiving   :      62.51       0.00        400          1          1
  crossover        :       9.00       0.00          5          1          1
  dins             :       0.00       0.00          0          0          0
  distributiondivin:      78.06       0.00        399          0          0
  dps              :       0.00       0.00          0          0          0
  dualval          :       0.00       0.00          0          0          0
  farkasdiving     :       0.01       0.00          0          0          0
  feaspump         :       0.11       0.00          2          1          0
  fixandinfer      :       0.00       0.00          0          0          0
  fracdiving       :      34.42       0.00        400          0          0
  gins             :       0.16       0.00          0          0          0
  guideddiving     :      34.98       0.00        400          1          1
  indicator        :       0.15       0.00          0          0          0
  indicatordiving  :       0.00       0.00          0          0          0
  intdiving        :       0.00       0.00          0          0          0
  intshifting      :       1.03       0.00         89          0          0
  linesearchdiving :      34.93       0.00        400          5          5
  localbranching   :       0.00       0.00          0          0          0
  locks            :       0.01       0.00          1          0          0
  lpface           :       0.08       0.00          0          0          0
  mpec             :      64.37       0.00         11          0          0
  multistart       :       0.00       0.00          0          0          0
  mutation         :       0.00       0.00          0          0          0
  nlpdiving        :      13.57       0.00          3          1          0
  objpscostdiving  :     116.14       0.00        200         88          1
  octane           :       0.00       0.00          0          0          0
  ofins            :       0.10       0.00          0          0          0
  oneopt           :       0.11       0.00         17          0          0
  padm             :       0.00       0.00          0          0          0
  proximity        :       0.00       0.00          0          0          0
  pscostdiving     :      58.93       0.00        400          4          4
  randrounding     :       1.22       0.00      13404          0          0
  rens             :       0.00       0.00          0          0          0
  reoptsols        :       0.00       0.00          0          0          0
  repair           :       0.00       0.00          0          0          0
  rins             :       3.55       0.00         22          0          0
  rootsoldiving    :      16.87       0.00        200         32          1
  rounding         :       0.96       0.00       4777          0          0
  shiftandpropagate:       0.00       0.00          0          0          0
  shifting         :      20.67       0.00       6371          1          1
  simplerounding   :       0.15       0.00          0          0          0
  subnlp           :     122.33       0.00          0          0          0
  trivial          :       0.01       0.00          2          2          2
  trivialnegation  :       0.00       0.00          0          0          0
  trustregion      :       0.00       0.00          0          0          0
  trysol           :       0.23       0.00          0          0          0
  twoopt           :       0.00       0.00          0          0          0
  undercover       :       3.80       0.00          1          1          1
  vbounds          :       0.00       0.00          0          0          0
  veclendiving     :      34.99       0.00        400          0          0
  zeroobj          :       0.00       0.00          0          0          0
  zirounding       :       0.34       0.00       1000          0          0
  other solutions  :          -          -          -          0          -
Diving (single)    :      Calls      Nodes   LP Iters Backtracks  Conflicts   MinDepth   MaxDepth   AvgDepth  RoundSols  NLeafSols  MinSolDpt  MaxSolDpt  AvgSolDpt
  actconsdiving    :          0          -          -          -          -          -          -          -          -          -          -          -          -
  coefdiving       :          0          -          -          -          -          -          -          -          -          -          -          -          -
  conflictdiving   :        400      15386     552499        331       5653         64         91       75.2          0          1         86         86       86.0
  distributiondivin:        399      12777     524244        471       8584         60         93       75.1          0          -          -          -          -
  farkasdiving     :          0          -          -          -          -          -          -          -          -          -          -          -          -
  fracdiving       :        400      59811     281715         79       1110         72        661      192.7          0          -          -          -          -
  guideddiving     :        400      45999     291033         60       2336         67        485      158.5          0          1        153        153      153.0
  indicatordiving  :          0          -          -          -          -          -          -          -          -          -          -          -          -
  linesearchdiving :        400      19879     303706         82       7891         64        111       90.9          0          5         84        101       92.0
  pscostdiving     :        400      17088     495048        414       7667         69         99       85.5          0          4         79         90       86.0
  veclendiving     :        400      15678     291580        331      17525         65         96       79.9          0          -          -          -          -
Diving (adaptive)  :      Calls      Nodes   LP Iters Backtracks  Conflicts   MinDepth   MaxDepth   AvgDepth  RoundSols  NLeafSols  MinSolDpt  MaxSolDpt  AvgSolDpt
  actconsdiving    :          3         64         94          3         22         68         73       70.7          0          -          -          -          -
  coefdiving       :         13        544       8777          8        384         71         94       83.5          0          -          -          -          -
  conflictdiving   :          0          -          -          -          -          -          -          -          -          -          -          -          -
  distributiondivin:          0          -          -          -          -          -          -          -          -          -          -          -          -
  farkasdiving     :          0          -          -          -          -          -          -          -          -          -          -          -          -
  fracdiving       :         11        856       2701          1         68         79        360      125.2          0          -          -          -          -
  guideddiving     :          8        828       4716          0          0        114        220      153.4          0          -          -          -          -
  indicatordiving  :          0          -          -          -          -          -          -          -          -          -          -          -          -
  linesearchdiving :         15        699       9599          1        258         72         99       88.5          0          -          -          -          -
  pscostdiving     :          4        158       3082          4         44         85         88       86.5          0          -          -          -          -
  veclendiving     :          7        237       3193          2        207         67         87       77.1          0          -          -          -          -
Neighborhoods      :      Calls  SetupTime  SolveTime SolveNodes       Sols       Best       Exp3  EpsGreedy        UCB TgtFixRate  Opt  Inf Node Stal  Sol  Usr Othr Actv
  rens             :          2       0.04       0.09         50          0          0    0.00000   -1.00000    0.47095      0.850    0    1    0    1    0    0    0    1
  rins             :          1       0.01       0.01          1          0          0    0.00000   -1.00000    0.56398      0.700    0    1    0    0    0    0    0    1
  mutation         :          1       0.01       0.02         23          0          0    0.00000   -1.00000    0.54428      0.700    0    1    0    0    0    0    0    1
  localbranching   :          2       0.04       0.05         60          0          0    0.00000   -1.00000    0.47045      0.850    0    1    0    1    0    0    0    1
  crossover        :          2       0.07       0.16         63          0          0    0.00000   -1.00000    0.47045      0.850    0    1    0    1    0    0    0    1
  proximity        :          2       0.06       0.13         57          0          0    0.00000   -1.00000    0.47045      0.850    0    1    0    1    0    0    0    1
  zeroobjective    :          1       0.01       0.02         51          0          0    0.00000   -1.00000    0.51398      0.700    0    1    0    0    0    0    0    1
  dins             :          2       0.03       0.09         54          0          0    0.00000   -1.00000    0.47045      0.850    0    1    0    1    0    0    0    1
  trustregion      :          0       0.00       0.00          0          0          0    0.00000   -1.00000    1.00000      0.900    0    0    0    0    0    0    0    0
Expressions        :   #IntEval  IntEvalTi   #RevProp  RevPropTi    DomReds    Cutoffs  #Estimate  EstimTime  Branching  #Simplify SimplifyTi Simplified
  pow              :          0       0.00          0       0.00          0          0          0       0.00          0          0       0.00          0
  prod             :      17820       0.00          0       0.00          0          0          0       0.00          0      10091       0.00          0
  sum              :          8       0.01          2       0.00          0          0          0       0.00          0          3       0.05          2
  var              :       4799       0.00          0       0.00          0          0          0       0.00          0      21714       0.01          0
  varidx           :          0       0.00          0       0.00          0          0          0       0.00          0          0       0.00          0
LP                 :       Time      Calls Iterations  Iter/call   Iter/sec  Time-0-It Calls-0-It    ItLimit
  primal LP        :      69.41      10868          0       0.00       0.00      69.32      10868
  dual LP          :    2405.82     194685   18618499     109.56    7738.94       8.65      24747
  lex dual LP      :       0.00          0          0       0.00          -
  barrier LP       :       0.00          0          0       0.00          -       0.00          0
  resolve instable :       0.00          0          0       0.00          -
  diving/probing LP:     395.18      27202    3512734     129.14    8888.95
  strong branching :      11.75        833     105060     126.12    8941.28          -          -        501
    (at root node) :          -         20       3089     154.45          -
  conflict analysis:       7.74       6058      56154       9.27    7255.04
NLP relaxation     :
  solve time       :      13.31 (21 calls)
  convexity        :  nonconvex (145 linear rows, 0 convex ineq., 0 nonconvex ineq., 1181 nonlinear eq. or two-sided ineq.)
NLP Solvers        :  #Problems  ProblemTi    #Solves  SolveTime      #Iter  Time/Iter      #Okay #TimeLimit #IterLimit #LObjLimit #Interrupt  #NumError #EvalError  #OutOfMem #LicenseEr #OtherTerm   #GlobOpt    #LocOpt  #Feasible #LocInfeas #GlobInfea #Unbounded   #Unknown
  ipopt            :         12       6.59         58      77.87       1770       0.04         56          0          2          0          0          0          0          0          0          0          0         37          0         18          0          0          3
B&B Tree           :
  number of runs   :          1
  nodes            :     152328 (103980 internal, 48348 leaves)
  feasible leaves  :          0
  infeas. leaves   :         34
  objective leaves :      48313
  nodes (total)    :     152328 (103980 internal, 48348 leaves)
  nodes left       :      52059
  max depth        :         79
  max depth (total):         79
  backtracks       :      31737 (20.8%)
  early backtracks :          0 (0.0%)
  nodes exc. ref.  :          0 (0.0%)
  delayed cutoffs  :          0
  repropagations   :       6126 (353 domain reductions, 0 cutoffs)
  avg switch length:       7.15
  switching time   :     105.32
Estim. Tree Size   :     311804
Estimation Tree    : 207961 nodes (155902 visited, 103980 internal, 51922 leaves, 52059 open), weight: 0.0000 completed 0.1017
Estimations        :      estim      value      trend resolution     smooth
  wbe              : 8274236344727252992          -          -          -          -
  tree-profile     :         -1          -          -          -          -
  gap              :    5267985    0.59986    0.00001         64    5238214
  tree-weight      :     311804    0.00000    0.00000         64     310468
  leaf-frequency   :     311804    0.33304   -0.00024         64     310469
  ssg              :    9569910    0.83936   -0.00001         64    9249722
  open-nodes       :     311804 52059.00000  265.03475         64     310467
Root Node          :
  First LP value   : -5.55465768799102e+00
  First LP Iters   :       2240 (13176.47 Iter/sec)
  First LP Time    :       0.17
  Final Dual Bound : -5.42818989574291e+00
  Final Root Iters :       2821
  Root LP Estimate : -2.61399278922443e+00
Solution           :
  Solutions found  :        138 (18 improvements)
  First Solution   : +1.00000000000000e+05   (in run 1, after 0 nodes, 0.04 seconds, depth 0, found by <trivial>)
  Gap First Sol.   :   infinite
  Gap Last Sol.    :      66.76 %
  Primal Bound     : -2.99551066217733e+00   (in run 1, after 145078 nodes, 2741.23 seconds, depth 42, found by <crossover>)
  Dual Bound       : -4.99367348121312e+00
  Gap              :      66.71 %
Integrals          :      Total       Avg%
  primal-dual      :  148108.39      41.14
  primal-ref       :          -          - (not evaluated)
  dual-ref         :          -          - (not evaluated)
